452 10
3 3 3 3 3 3 3 3 3 3
0  0 0 0 0 0 0 0 0 0 0  45 2 12 22 32 42 52 62 72 82 92 102 112 122 132 142 152 162 172 182 192 202 212 222 232 242 252 262 272 282 292 302 312 322 332 342 352 362 372 382 392 402 412 422 432 442
84  0 0 0 0 0 0 0 1 0 0  1 3
58  0 0 0 0 0 1 0 0 0 0  1 4
77  0 0 0 0 0 0 0 0 1 0  1 5
44  0 0 1 0 0 0 0 0 0 0  1 6
97  0 0 0 0 1 0 0 0 0 0  1 7
89  0 0 0 0 0 0 1 0 0 0  1 8
5  0 0 0 1 0 0 0 0 0 0  1 9
58  0 1 0 0 0 0 0 0 0 0  1 10
96  0 0 0 0 0 0 0 0 0 1  1 11
9  1 0 0 0 0 0 0 0 0 0  1 452
21  0 0 0 0 0 0 1 0 0 0  1 13
87  0 1 0 0 0 0 0 0 0 0  1 14
15  0 0 0 0 1 0 0 0 0 0  1 15
39  0 0 0 0 0 1 0 0 0 0  1 16
81  0 0 1 0 0 0 0 0 0 0  1 17
85  0 0 0 1 0 0 0 0 0 0  1 18
31  0 0 0 0 0 0 0 1 0 0  1 19
57  0 0 0 0 0 0 0 0 1 0  1 20
73  0 0 0 0 0 0 0 0 0 1  1 21
77  1 0 0 0 0 0 0 0 0 0  1 452
40  1 0 0 0 0 0 0 0 0 0  1 23
71  0 0 0 0 0 1 0 0 0 0  1 24
34  0 0 0 0 0 0 0 0 1 0  1 25
82  0 0 0 0 0 0 0 0 0 1  1 26
70  0 0 0 1 0 0 0 0 0 0  1 27
22  0 0 0 0 0 0 1 0 0 0  1 28
10  0 0 0 0 1 0 0 0 0 0  1 29
80  0 0 0 0 0 0 0 1 0 0  1 30
48  0 0 1 0 0 0 0 0 0 0  1 31
49  0 1 0 0 0 0 0 0 0 0  1 452
75  0 0 0 0 0 1 0 0 0 0  1 33
17  0 0 1 0 0 0 0 0 0 0  1 34
7  0 0 0 1 0 0 0 0 0 0  1 35
72  0 0 0 0 0 0 1 0 0 0  1 36
11  0 0 0 0 1 0 0 0 0 0  1 37
62  0 0 0 0 0 0 0 1 0 0  1 38
47  0 0 0 0 0 0 0 0 1 0  1 39
35  0 0 0 0 0 0 0 0 0 1  1 40
91  0 1 0 0 0 0 0 0 0 0  1 41
55  1 0 0 0 0 0 0 0 0 0  1 452
20  0 0 0 0 0 0 0 0 0 1  1 43
12  0 0 0 0 1 0 0 0 0 0  1 44
71  0 0 0 0 0 0 1 0 0 0  1 45
67  0 0 0 0 0 0 0 1 0 0  1 46
64  1 0 0 0 0 0 0 0 0 0  1 47
94  0 0 1 0 0 0 0 0 0 0  1 48
15  0 0 0 0 0 0 0 0 1 0  1 49
50  0 0 0 0 0 1 0 0 0 0  1 50
75  0 0 0 1 0 0 0 0 0 0  1 51
90  0 1 0 0 0 0 0 0 0 0  1 452
93  0 0 0 0 0 0 1 0 0 0  1 53
93  0 0 0 0 0 1 0 0 0 0  1 54
57  0 1 0 0 0 0 0 0 0 0  1 55
70  0 0 0 0 0 0 0 1 0 0  1 56
77  0 0 0 0 0 0 0 0 1 0  1 57
58  0 0 0 0 1 0 0 0 0 0  1 58
52  1 0 0 0 0 0 0 0 0 0  1 59
29  0 0 1 0 0 0 0 0 0 0  1 60
7  0 0 0 0 0 0 0 0 0 1  1 61
68  0 0 0 1 0 0 0 0 0 0  1 452
56  0 0 0 0 0 0 0 1 0 0  1 63
95  1 0 0 0 0 0 0 0 0 0  1 64
48  0 0 0 0 0 0 0 0 1 0  1 65
26  0 0 0 0 1 0 0 0 0 0  1 66
82  0 0 1 0 0 0 0 0 0 0  1 67
63  0 1 0 0 0 0 0 0 0 0  1 68
36  0 0 0 0 0 0 0 0 0 1  1 69
27  0 0 0 1 0 0 0 0 0 0  1 70
87  0 0 0 0 0 0 1 0 0 0  1 71
6  0 0 0 0 0 1 0 0 0 0  1 452
76  0 0 0 1 0 0 0 0 0 0  1 73
15  0 0 0 0 0 1 0 0 0 0  1 74
78  0 0 0 0 0 0 0 0 0 1  1 75
8  0 1 0 0 0 0 0 0 0 0  1 76
41  0 0 0 0 0 0 0 0 1 0  1 77
36  0 0 1 0 0 0 0 0 0 0  1 78
30  0 0 0 0 1 0 0 0 0 0  1 79
84  0 0 0 0 0 0 1 0 0 0  1 80
36  1 0 0 0 0 0 0 0 0 0  1 81
76  0 0 0 0 0 0 0 1 0 0  1 452
75  1 0 0 0 0 0 0 0 0 0  1 83
13  0 0 0 0 0 0 0 1 0 0  1 84
81  0 0 1 0 0 0 0 0 0 0  1 85
29  0 0 0 0 0 0 0 0 1 0  1 86
54  0 0 0 0 1 0 0 0 0 0  1 87
82  0 0 0 0 0 0 1 0 0 0  1 88
88  0 0 0 0 0 1 0 0 0 0  1 89
78  0 1 0 0 0 0 0 0 0 0  1 90
40  0 0 0 0 0 0 0 0 0 1  1 91
13  0 0 0 1 0 0 0 0 0 0  1 452
6  0 0 1 0 0 0 0 0 0 0  1 93
26  0 1 0 0 0 0 0 0 0 0  1 94
32  0 0 0 0 0 0 0 1 0 0  1 95
64  0 0 0 0 0 0 1 0 0 0  1 96
54  0 0 0 0 1 0 0 0 0 0  1 97
52  1 0 0 0 0 0 0 0 0 0  1 98
82  0 0 0 0 0 1 0 0 0 0  1 99
6  0 0 0 1 0 0 0 0 0 0  1 100
88  0 0 0 0 0 0 0 0 0 1  1 101
54  0 0 0 0 0 0 0 0 1 0  1 452
62  0 0 0 0 0 0 0 0 1 0  1 103
67  0 0 1 0 0 0 0 0 0 0  1 104
32  0 0 0 0 0 1 0 0 0 0  1 105
62  1 0 0 0 0 0 0 0 0 0  1 106
69  0 0 0 0 0 0 0 1 0 0  1 107
61  0 0 0 1 0 0 0 0 0 0  1 108
35  0 1 0 0 0 0 0 0 0 0  1 109
72  0 0 0 0 1 0 0 0 0 0  1 110
5  0 0 0 0 0 0 0 0 0 1  1 111
93  0 0 0 0 0 0 1 0 0 0  1 452
78  0 0 1 0 0 0 0 0 0 0  1 113
90  0 0 0 0 0 0 0 0 0 1  1 114
85  1 0 0 0 0 0 0 0 0 0  1 115
72  0 1 0 0 0 0 0 0 0 0  1 116
64  0 0 0 0 0 0 0 0 1 0  1 117
63  0 0 0 0 0 0 1 0 0 0  1 118
11  0 0 0 1 0 0 0 0 0 0  1 119
82  0 0 0 0 0 0 0 1 0 0  1 120
88  0 0 0 0 0 1 0 0 0 0  1 121
7  0 0 0 0 1 0 0 0 0 0  1 452
28  0 0 0 0 1 0 0 0 0 0  1 123
11  0 0 0 0 0 0 0 0 0 1  1 124
50  0 0 0 0 0 0 0 1 0 0  1 125
88  0 0 0 0 0 0 1 0 0 0  1 126
44  1 0 0 0 0 0 0 0 0 0  1 127
31  0 0 0 0 0 1 0 0 0 0  1 128
27  0 0 1 0 0 0 0 0 0 0  1 129
66  0 1 0 0 0 0 0 0 0 0  1 130
49  0 0 0 0 0 0 0 0 1 0  1 131
35  0 0 0 1 0 0 0 0 0 0  1 452
14  0 0 1 0 0 0 0 0 0 0  1 133
39  0 0 0 0 0 1 0 0 0 0  1 134
56  0 0 0 0 0 0 1 0 0 0  1 135
62  0 0 0 0 1 0 0 0 0 0  1 136
97  0 0 0 1 0 0 0 0 0 0  1 137
66  0 0 0 0 0 0 0 0 0 1  1 138
69  0 0 0 0 0 0 0 1 0 0  1 139
7  0 1 0 0 0 0 0 0 0 0  1 140
47  0 0 0 0 0 0 0 0 1 0  1 141
76  1 0 0 0 0 0 0 0 0 0  1 452
18  0 1 0 0 0 0 0 0 0 0  1 143
93  0 0 0 0 0 0 0 0 1 0  1 144
58  0 0 0 0 0 0 0 1 0 0  1 145
47  0 0 0 0 0 0 1 0 0 0  1 146
69  0 0 0 1 0 0 0 0 0 0  1 147
57  0 0 0 0 0 0 0 0 0 1  1 148
41  0 0 1 0 0 0 0 0 0 0  1 149
53  0 0 0 0 0 1 0 0 0 0  1 150
79  0 0 0 0 1 0 0 0 0 0  1 151
64  1 0 0 0 0 0 0 0 0 0  1 452
84  0 0 0 0 0 0 0 1 0 0  1 153
58  0 0 0 0 0 1 0 0 0 0  1 154
77  0 0 0 0 0 0 0 0 1 0  1 155
44  0 0 1 0 0 0 0 0 0 0  1 156
97  0 0 0 0 1 0 0 0 0 0  1 157
89  0 0 0 0 0 0 1 0 0 0  1 158
5  0 0 0 1 0 0 0 0 0 0  1 159
58  0 1 0 0 0 0 0 0 0 0  1 160
96  0 0 0 0 0 0 0 0 0 1  1 161
9  1 0 0 0 0 0 0 0 0 0  1 452
21  0 0 0 0 0 0 1 0 0 0  1 163
87  0 1 0 0 0 0 0 0 0 0  1 164
15  0 0 0 0 1 0 0 0 0 0  1 165
39  0 0 0 0 0 1 0 0 0 0  1 166
81  0 0 1 0 0 0 0 0 0 0  1 167
85  0 0 0 1 0 0 0 0 0 0  1 168
31  0 0 0 0 0 0 0 1 0 0  1 169
57  0 0 0 0 0 0 0 0 1 0  1 170
73  0 0 0 0 0 0 0 0 0 1  1 171
77  1 0 0 0 0 0 0 0 0 0  1 452
40  1 0 0 0 0 0 0 0 0 0  1 173
71  0 0 0 0 0 1 0 0 0 0  1 174
34  0 0 0 0 0 0 0 0 1 0  1 175
82  0 0 0 0 0 0 0 0 0 1  1 176
70  0 0 0 1 0 0 0 0 0 0  1 177
22  0 0 0 0 0 0 1 0 0 0  1 178
10  0 0 0 0 1 0 0 0 0 0  1 179
80  0 0 0 0 0 0 0 1 0 0  1 180
48  0 0 1 0 0 0 0 0 0 0  1 181
49  0 1 0 0 0 0 0 0 0 0  1 452
75  0 0 0 0 0 1 0 0 0 0  1 183
17  0 0 1 0 0 0 0 0 0 0  1 184
7  0 0 0 1 0 0 0 0 0 0  1 185
72  0 0 0 0 0 0 1 0 0 0  1 186
11  0 0 0 0 1 0 0 0 0 0  1 187
62  0 0 0 0 0 0 0 1 0 0  1 188
47  0 0 0 0 0 0 0 0 1 0  1 189
35  0 0 0 0 0 0 0 0 0 1  1 190
91  0 1 0 0 0 0 0 0 0 0  1 191
55  1 0 0 0 0 0 0 0 0 0  1 452
20  0 0 0 0 0 0 0 0 0 1  1 193
12  0 0 0 0 1 0 0 0 0 0  1 194
71  0 0 0 0 0 0 1 0 0 0  1 195
67  0 0 0 0 0 0 0 1 0 0  1 196
64  1 0 0 0 0 0 0 0 0 0  1 197
94  0 0 1 0 0 0 0 0 0 0  1 198
15  0 0 0 0 0 0 0 0 1 0  1 199
50  0 0 0 0 0 1 0 0 0 0  1 200
75  0 0 0 1 0 0 0 0 0 0  1 201
90  0 1 0 0 0 0 0 0 0 0  1 452
93  0 0 0 0 0 0 1 0 0 0  1 203
93  0 0 0 0 0 1 0 0 0 0  1 204
57  0 1 0 0 0 0 0 0 0 0  1 205
70  0 0 0 0 0 0 0 1 0 0  1 206
77  0 0 0 0 0 0 0 0 1 0  1 207
58  0 0 0 0 1 0 0 0 0 0  1 208
52  1 0 0 0 0 0 0 0 0 0  1 209
29  0 0 1 0 0 0 0 0 0 0  1 210
7  0 0 0 0 0 0 0 0 0 1  1 211
68  0 0 0 1 0 0 0 0 0 0  1 452
56  0 0 0 0 0 0 0 1 0 0  1 213
95  1 0 0 0 0 0 0 0 0 0  1 214
48  0 0 0 0 0 0 0 0 1 0  1 215
26  0 0 0 0 1 0 0 0 0 0  1 216
82  0 0 1 0 0 0 0 0 0 0  1 217
63  0 1 0 0 0 0 0 0 0 0  1 218
36  0 0 0 0 0 0 0 0 0 1  1 219
27  0 0 0 1 0 0 0 0 0 0  1 220
87  0 0 0 0 0 0 1 0 0 0  1 221
6  0 0 0 0 0 1 0 0 0 0  1 452
76  0 0 0 1 0 0 0 0 0 0  1 223
15  0 0 0 0 0 1 0 0 0 0  1 224
78  0 0 0 0 0 0 0 0 0 1  1 225
8  0 1 0 0 0 0 0 0 0 0  1 226
41  0 0 0 0 0 0 0 0 1 0  1 227
36  0 0 1 0 0 0 0 0 0 0  1 228
30  0 0 0 0 1 0 0 0 0 0  1 229
84  0 0 0 0 0 0 1 0 0 0  1 230
36  1 0 0 0 0 0 0 0 0 0  1 231
76  0 0 0 0 0 0 0 1 0 0  1 452
75  1 0 0 0 0 0 0 0 0 0  1 233
13  0 0 0 0 0 0 0 1 0 0  1 234
81  0 0 1 0 0 0 0 0 0 0  1 235
29  0 0 0 0 0 0 0 0 1 0  1 236
54  0 0 0 0 1 0 0 0 0 0  1 237
82  0 0 0 0 0 0 1 0 0 0  1 238
88  0 0 0 0 0 1 0 0 0 0  1 239
78  0 1 0 0 0 0 0 0 0 0  1 240
40  0 0 0 0 0 0 0 0 0 1  1 241
13  0 0 0 1 0 0 0 0 0 0  1 452
6  0 0 1 0 0 0 0 0 0 0  1 243
26  0 1 0 0 0 0 0 0 0 0  1 244
32  0 0 0 0 0 0 0 1 0 0  1 245
64  0 0 0 0 0 0 1 0 0 0  1 246
54  0 0 0 0 1 0 0 0 0 0  1 247
52  1 0 0 0 0 0 0 0 0 0  1 248
82  0 0 0 0 0 1 0 0 0 0  1 249
6  0 0 0 1 0 0 0 0 0 0  1 250
88  0 0 0 0 0 0 0 0 0 1  1 251
54  0 0 0 0 0 0 0 0 1 0  1 452
62  0 0 0 0 0 0 0 0 1 0  1 253
67  0 0 1 0 0 0 0 0 0 0  1 254
32  0 0 0 0 0 1 0 0 0 0  1 255
62  1 0 0 0 0 0 0 0 0 0  1 256
69  0 0 0 0 0 0 0 1 0 0  1 257
61  0 0 0 1 0 0 0 0 0 0  1 258
35  0 1 0 0 0 0 0 0 0 0  1 259
72  0 0 0 0 1 0 0 0 0 0  1 260
5  0 0 0 0 0 0 0 0 0 1  1 261
93  0 0 0 0 0 0 1 0 0 0  1 452
78  0 0 1 0 0 0 0 0 0 0  1 263
90  0 0 0 0 0 0 0 0 0 1  1 264
85  1 0 0 0 0 0 0 0 0 0  1 265
72  0 1 0 0 0 0 0 0 0 0  1 266
64  0 0 0 0 0 0 0 0 1 0  1 267
63  0 0 0 0 0 0 1 0 0 0  1 268
11  0 0 0 1 0 0 0 0 0 0  1 269
82  0 0 0 0 0 0 0 1 0 0  1 270
88  0 0 0 0 0 1 0 0 0 0  1 271
7  0 0 0 0 1 0 0 0 0 0  1 452
28  0 0 0 0 1 0 0 0 0 0  1 273
11  0 0 0 0 0 0 0 0 0 1  1 274
50  0 0 0 0 0 0 0 1 0 0  1 275
88  0 0 0 0 0 0 1 0 0 0  1 276
44  1 0 0 0 0 0 0 0 0 0  1 277
31  0 0 0 0 0 1 0 0 0 0  1 278
27  0 0 1 0 0 0 0 0 0 0  1 279
66  0 1 0 0 0 0 0 0 0 0  1 280
49  0 0 0 0 0 0 0 0 1 0  1 281
35  0 0 0 1 0 0 0 0 0 0  1 452
14  0 0 1 0 0 0 0 0 0 0  1 283
39  0 0 0 0 0 1 0 0 0 0  1 284
56  0 0 0 0 0 0 1 0 0 0  1 285
62  0 0 0 0 1 0 0 0 0 0  1 286
97  0 0 0 1 0 0 0 0 0 0  1 287
66  0 0 0 0 0 0 0 0 0 1  1 288
69  0 0 0 0 0 0 0 1 0 0  1 289
7  0 1 0 0 0 0 0 0 0 0  1 290
47  0 0 0 0 0 0 0 0 1 0  1 291
76  1 0 0 0 0 0 0 0 0 0  1 452
18  0 1 0 0 0 0 0 0 0 0  1 293
93  0 0 0 0 0 0 0 0 1 0  1 294
58  0 0 0 0 0 0 0 1 0 0  1 295
47  0 0 0 0 0 0 1 0 0 0  1 296
69  0 0 0 1 0 0 0 0 0 0  1 297
57  0 0 0 0 0 0 0 0 0 1  1 298
41  0 0 1 0 0 0 0 0 0 0  1 299
53  0 0 0 0 0 1 0 0 0 0  1 300
79  0 0 0 0 1 0 0 0 0 0  1 301
64  1 0 0 0 0 0 0 0 0 0  1 452
84  0 0 0 0 0 0 0 1 0 0  1 303
58  0 0 0 0 0 1 0 0 0 0  1 304
77  0 0 0 0 0 0 0 0 1 0  1 305
44  0 0 1 0 0 0 0 0 0 0  1 306
97  0 0 0 0 1 0 0 0 0 0  1 307
89  0 0 0 0 0 0 1 0 0 0  1 308
5  0 0 0 1 0 0 0 0 0 0  1 309
58  0 1 0 0 0 0 0 0 0 0  1 310
96  0 0 0 0 0 0 0 0 0 1  1 311
9  1 0 0 0 0 0 0 0 0 0  1 452
21  0 0 0 0 0 0 1 0 0 0  1 313
87  0 1 0 0 0 0 0 0 0 0  1 314
15  0 0 0 0 1 0 0 0 0 0  1 315
39  0 0 0 0 0 1 0 0 0 0  1 316
81  0 0 1 0 0 0 0 0 0 0  1 317
85  0 0 0 1 0 0 0 0 0 0  1 318
31  0 0 0 0 0 0 0 1 0 0  1 319
57  0 0 0 0 0 0 0 0 1 0  1 320
73  0 0 0 0 0 0 0 0 0 1  1 321
77  1 0 0 0 0 0 0 0 0 0  1 452
40  1 0 0 0 0 0 0 0 0 0  1 323
71  0 0 0 0 0 1 0 0 0 0  1 324
34  0 0 0 0 0 0 0 0 1 0  1 325
82  0 0 0 0 0 0 0 0 0 1  1 326
70  0 0 0 1 0 0 0 0 0 0  1 327
22  0 0 0 0 0 0 1 0 0 0  1 328
10  0 0 0 0 1 0 0 0 0 0  1 329
80  0 0 0 0 0 0 0 1 0 0  1 330
48  0 0 1 0 0 0 0 0 0 0  1 331
49  0 1 0 0 0 0 0 0 0 0  1 452
75  0 0 0 0 0 1 0 0 0 0  1 333
17  0 0 1 0 0 0 0 0 0 0  1 334
7  0 0 0 1 0 0 0 0 0 0  1 335
72  0 0 0 0 0 0 1 0 0 0  1 336
11  0 0 0 0 1 0 0 0 0 0  1 337
62  0 0 0 0 0 0 0 1 0 0  1 338
47  0 0 0 0 0 0 0 0 1 0  1 339
35  0 0 0 0 0 0 0 0 0 1  1 340
91  0 1 0 0 0 0 0 0 0 0  1 341
55  1 0 0 0 0 0 0 0 0 0  1 452
20  0 0 0 0 0 0 0 0 0 1  1 343
12  0 0 0 0 1 0 0 0 0 0  1 344
71  0 0 0 0 0 0 1 0 0 0  1 345
67  0 0 0 0 0 0 0 1 0 0  1 346
64  1 0 0 0 0 0 0 0 0 0  1 347
94  0 0 1 0 0 0 0 0 0 0  1 348
15  0 0 0 0 0 0 0 0 1 0  1 349
50  0 0 0 0 0 1 0 0 0 0  1 350
75  0 0 0 1 0 0 0 0 0 0  1 351
90  0 1 0 0 0 0 0 0 0 0  1 452
93  0 0 0 0 0 0 1 0 0 0  1 353
93  0 0 0 0 0 1 0 0 0 0  1 354
57  0 1 0 0 0 0 0 0 0 0  1 355
70  0 0 0 0 0 0 0 1 0 0  1 356
77  0 0 0 0 0 0 0 0 1 0  1 357
58  0 0 0 0 1 0 0 0 0 0  1 358
52  1 0 0 0 0 0 0 0 0 0  1 359
29  0 0 1 0 0 0 0 0 0 0  1 360
7  0 0 0 0 0 0 0 0 0 1  1 361
68  0 0 0 1 0 0 0 0 0 0  1 452
56  0 0 0 0 0 0 0 1 0 0  1 363
95  1 0 0 0 0 0 0 0 0 0  1 364
48  0 0 0 0 0 0 0 0 1 0  1 365
26  0 0 0 0 1 0 0 0 0 0  1 366
82  0 0 1 0 0 0 0 0 0 0  1 367
63  0 1 0 0 0 0 0 0 0 0  1 368
36  0 0 0 0 0 0 0 0 0 1  1 369
27  0 0 0 1 0 0 0 0 0 0  1 370
87  0 0 0 0 0 0 1 0 0 0  1 371
6  0 0 0 0 0 1 0 0 0 0  1 452
76  0 0 0 1 0 0 0 0 0 0  1 373
15  0 0 0 0 0 1 0 0 0 0  1 374
78  0 0 0 0 0 0 0 0 0 1  1 375
8  0 1 0 0 0 0 0 0 0 0  1 376
41  0 0 0 0 0 0 0 0 1 0  1 377
36  0 0 1 0 0 0 0 0 0 0  1 378
30  0 0 0 0 1 0 0 0 0 0  1 379
84  0 0 0 0 0 0 1 0 0 0  1 380
36  1 0 0 0 0 0 0 0 0 0  1 381
76  0 0 0 0 0 0 0 1 0 0  1 452
75  1 0 0 0 0 0 0 0 0 0  1 383
13  0 0 0 0 0 0 0 1 0 0  1 384
81  0 0 1 0 0 0 0 0 0 0  1 385
29  0 0 0 0 0 0 0 0 1 0  1 386
54  0 0 0 0 1 0 0 0 0 0  1 387
82  0 0 0 0 0 0 1 0 0 0  1 388
88  0 0 0 0 0 1 0 0 0 0  1 389
78  0 1 0 0 0 0 0 0 0 0  1 390
40  0 0 0 0 0 0 0 0 0 1  1 391
13  0 0 0 1 0 0 0 0 0 0  1 452
6  0 0 1 0 0 0 0 0 0 0  1 393
26  0 1 0 0 0 0 0 0 0 0  1 394
32  0 0 0 0 0 0 0 1 0 0  1 395
64  0 0 0 0 0 0 1 0 0 0  1 396
54  0 0 0 0 1 0 0 0 0 0  1 397
52  1 0 0 0 0 0 0 0 0 0  1 398
82  0 0 0 0 0 1 0 0 0 0  1 399
6  0 0 0 1 0 0 0 0 0 0  1 400
88  0 0 0 0 0 0 0 0 0 1  1 401
54  0 0 0 0 0 0 0 0 1 0  1 452
62  0 0 0 0 0 0 0 0 1 0  1 403
67  0 0 1 0 0 0 0 0 0 0  1 404
32  0 0 0 0 0 1 0 0 0 0  1 405
62  1 0 0 0 0 0 0 0 0 0  1 406
69  0 0 0 0 0 0 0 1 0 0  1 407
61  0 0 0 1 0 0 0 0 0 0  1 408
35  0 1 0 0 0 0 0 0 0 0  1 409
72  0 0 0 0 1 0 0 0 0 0  1 410
5  0 0 0 0 0 0 0 0 0 1  1 411
93  0 0 0 0 0 0 1 0 0 0  1 452
78  0 0 1 0 0 0 0 0 0 0  1 413
90  0 0 0 0 0 0 0 0 0 1  1 414
85  1 0 0 0 0 0 0 0 0 0  1 415
72  0 1 0 0 0 0 0 0 0 0  1 416
64  0 0 0 0 0 0 0 0 1 0  1 417
63  0 0 0 0 0 0 1 0 0 0  1 418
11  0 0 0 1 0 0 0 0 0 0  1 419
82  0 0 0 0 0 0 0 1 0 0  1 420
88  0 0 0 0 0 1 0 0 0 0  1 421
7  0 0 0 0 1 0 0 0 0 0  1 452
28  0 0 0 0 1 0 0 0 0 0  1 423
11  0 0 0 0 0 0 0 0 0 1  1 424
50  0 0 0 0 0 0 0 1 0 0  1 425
88  0 0 0 0 0 0 1 0 0 0  1 426
44  1 0 0 0 0 0 0 0 0 0  1 427
31  0 0 0 0 0 1 0 0 0 0  1 428
27  0 0 1 0 0 0 0 0 0 0  1 429
66  0 1 0 0 0 0 0 0 0 0  1 430
49  0 0 0 0 0 0 0 0 1 0  1 431
35  0 0 0 1 0 0 0 0 0 0  1 452
14  0 0 1 0 0 0 0 0 0 0  1 433
39  0 0 0 0 0 1 0 0 0 0  1 434
56  0 0 0 0 0 0 1 0 0 0  1 435
62  0 0 0 0 1 0 0 0 0 0  1 436
97  0 0 0 1 0 0 0 0 0 0  1 437
66  0 0 0 0 0 0 0 0 0 1  1 438
69  0 0 0 0 0 0 0 1 0 0  1 439
7  0 1 0 0 0 0 0 0 0 0  1 440
47  0 0 0 0 0 0 0 0 1 0  1 441
76  1 0 0 0 0 0 0 0 0 0  1 452
18  0 1 0 0 0 0 0 0 0 0  1 443
93  0 0 0 0 0 0 0 0 1 0  1 444
58  0 0 0 0 0 0 0 1 0 0  1 445
47  0 0 0 0 0 0 1 0 0 0  1 446
69  0 0 0 1 0 0 0 0 0 0  1 447
57  0 0 0 0 0 0 0 0 0 1  1 448
41  0 0 1 0 0 0 0 0 0 0  1 449
53  0 0 0 0 0 1 0 0 0 0  1 450
79  0 0 0 0 1 0 0 0 0 0  1 451
64  1 0 0 0 0 0 0 0 0 0  1 452
0  0 0 0 0 0 0 0 0 0 0  0
